0 892 
1 888 
2 878 
3 870 
4 864 
5 860 
6 852 
7 844 
8 832 
9 828 
10 824 
11 804 
12 790 
13 782 
14 776 
15 770 
16 768 
17 768 
18 756 
19 752 
20 740 
21 720 
22 706 
23 690 
24 682 
25 680 
26 668 
27 662 
28 638 
29 624 
30 620 
31 616 
32 612 
33 604 
34 592 
35 592 

